(set-info :smt-lib-version 2.6)
(set-logic QF_NIA)
(set-info :source |
Generated by: Cristina Borralleras, Daniel Larraz, Albert Oliveras, Enric Rodriguez-Carbonell, Albert Rubio
Generated on: 2017-04-27
Generator: VeryMax
Application: Termination proving
Target solver: barcelogic
|)
(set-info :license "https://creativecommons.org/licenses/by/4.0/")
(set-info :category "industrial")
(set-info :status unknown)
(declare-fun Nl2__disjvr_1^01 () Int)
(declare-fun Nl2__disjvr_2^01 () Int)
(declare-fun Nl2__disjvr_3^01 () Int)
(declare-fun Nl2b_16^01 () Int)
(declare-fun Nl2x_14^01 () Int)
(declare-fun Nl2__disjvr_1^02 () Int)
(declare-fun Nl2__disjvr_2^02 () Int)
(declare-fun Nl2__disjvr_3^02 () Int)
(declare-fun Nl2b_16^02 () Int)
(declare-fun Nl2x_14^02 () Int)
(declare-fun lam0n5 () Int)
(declare-fun lam0n6 () Int)
(declare-fun lam0n3 () Int)
(declare-fun lam0n4 () Int)
(declare-fun Nl2CT1 () Int)
(declare-fun Nl2CT2 () Int)
(declare-fun lam0n0 () Int)
(declare-fun lam0n1 () Int)
(declare-fun lam0n2 () Int)
(declare-fun lam1n5 () Int)
(declare-fun lam1n6 () Int)
(declare-fun lam1n3 () Int)
(declare-fun lam1n4 () Int)
(declare-fun lam1n0 () Int)
(declare-fun lam1n1 () Int)
(declare-fun lam1n2 () Int)
(declare-fun lam2n5 () Int)
(declare-fun lam2n6 () Int)
(declare-fun lam2n3 () Int)
(declare-fun lam2n4 () Int)
(declare-fun lam2n0 () Int)
(declare-fun lam2n1 () Int)
(declare-fun lam2n2 () Int)
(declare-fun lam3n0 () Int)
(declare-fun lam3n1 () Int)
(declare-fun lam4n0 () Int)
(declare-fun lam4n1 () Int)
(declare-fun x_14^0 () Int)
(declare-fun b_16^0 () Int)
(declare-fun __disjvr_1^0 () Int)
(declare-fun __disjvr_2^0 () Int)
(declare-fun __disjvr_3^0 () Int)
(declare-fun lam8n0 () Int)
(declare-fun lam8n1 () Int)
(declare-fun lam8n2 () Int)
(declare-fun lam8n3 () Int)
(declare-fun lam8n4 () Int)
(declare-fun lam8n5 () Int)
(declare-fun lam8n6 () Int)
(declare-fun lam8n7 () Int)
(declare-fun lam8n8 () Int)
(declare-fun lam8n9 () Int)
(declare-fun lam8n10 () Int)
(declare-fun lam8n16 () Int)
(declare-fun lam8n17 () Int)
(declare-fun lam8n14 () Int)
(declare-fun lam8n15 () Int)
(declare-fun RFN1_CT () Int)
(declare-fun RFN1___disjvr_1^0 () Int)
(declare-fun RFN1___disjvr_2^0 () Int)
(declare-fun RFN1___disjvr_3^0 () Int)
(declare-fun RFN1_b_16^0 () Int)
(declare-fun RFN1_x_14^0 () Int)
(declare-fun lam8n11 () Int)
(declare-fun lam8n12 () Int)
(declare-fun lam8n13 () Int)
(declare-fun lam6n0 () Int)
(declare-fun lam6n1 () Int)
(declare-fun lam6n2 () Int)
(declare-fun lam6n3 () Int)
(declare-fun lam6n4 () Int)
(declare-fun lam6n5 () Int)
(declare-fun lam6n6 () Int)
(declare-fun lam6n7 () Int)
(declare-fun lam6n8 () Int)
(declare-fun lam6n9 () Int)
(declare-fun lam6n10 () Int)
(declare-fun lam6n16 () Int)
(declare-fun lam6n17 () Int)
(declare-fun lam6n14 () Int)
(declare-fun lam6n15 () Int)
(declare-fun lam6n11 () Int)
(declare-fun lam6n12 () Int)
(declare-fun lam6n13 () Int)
(declare-fun lam7n0 () Int)
(declare-fun lam7n1 () Int)
(declare-fun lam7n2 () Int)
(declare-fun lam7n3 () Int)
(declare-fun lam7n4 () Int)
(declare-fun lam7n5 () Int)
(declare-fun lam7n6 () Int)
(declare-fun lam7n7 () Int)
(declare-fun lam7n8 () Int)
(declare-fun lam7n9 () Int)
(declare-fun lam7n10 () Int)
(declare-fun lam7n16 () Int)
(declare-fun lam7n17 () Int)
(declare-fun lam7n14 () Int)
(declare-fun lam7n15 () Int)
(declare-fun lam7n11 () Int)
(declare-fun lam7n12 () Int)
(declare-fun lam7n13 () Int)
(declare-fun lam5n0 () Int)
(declare-fun lam5n1 () Int)
(declare-fun lam5n2 () Int)
(declare-fun lam5n3 () Int)
(declare-fun lam5n4 () Int)
(declare-fun lam5n5 () Int)
(declare-fun lam5n6 () Int)
(declare-fun lam5n7 () Int)
(declare-fun lam5n8 () Int)
(declare-fun lam5n9 () Int)
(declare-fun lam5n10 () Int)
(declare-fun lam5n16 () Int)
(declare-fun lam5n17 () Int)
(declare-fun lam5n14 () Int)
(declare-fun lam5n15 () Int)
(declare-fun lam5n11 () Int)
(declare-fun lam5n12 () Int)
(declare-fun lam5n13 () Int)
(assert ( and ( <= ( - 1 ) Nl2__disjvr_1^01 ) ( <= Nl2__disjvr_1^01 1 ) ( <= ( - 1 ) Nl2__disjvr_2^01 ) ( <= Nl2__disjvr_2^01 1 ) ( <= ( - 1 ) Nl2__disjvr_3^01 ) ( <= Nl2__disjvr_3^01 1 ) ( <= ( - 1 ) Nl2b_16^01 ) ( <= Nl2b_16^01 1 ) ( <= ( - 1 ) Nl2x_14^01 ) ( <= Nl2x_14^01 1 ) ( <= ( - 1 ) Nl2__disjvr_1^02 ) ( <= Nl2__disjvr_1^02 1 ) ( <= ( - 1 ) Nl2__disjvr_2^02 ) ( <= Nl2__disjvr_2^02 1 ) ( <= ( - 1 ) Nl2__disjvr_3^02 ) ( <= Nl2__disjvr_3^02 1 ) ( <= ( - 1 ) Nl2b_16^02 ) ( <= Nl2b_16^02 1 ) ( <= ( - 1 ) Nl2x_14^02 ) ( <= Nl2x_14^02 1 ) ))
(assert ( or ( and ( >= lam0n5 0 ) ( >= lam0n6 0 ) ( > ( + ( * ( - 1 ) lam0n3 ) ( * ( - 2 ) lam0n4 ) ( * Nl2CT1 lam0n5 ) ( * Nl2CT2 lam0n6 ) ( - 1 ) ) 0 ) ( = ( + ( * 1 lam0n0 ) ( * Nl2__disjvr_1^01 lam0n5 ) ( * Nl2__disjvr_1^02 lam0n6 ) ) 0 ) ( = ( + ( * 1 lam0n1 ) ( * Nl2__disjvr_2^01 lam0n5 ) ( * Nl2__disjvr_2^02 lam0n6 ) ) 0 ) ( = ( + ( * 1 lam0n2 ) ( * Nl2__disjvr_3^01 lam0n5 ) ( * Nl2__disjvr_3^02 lam0n6 ) ) 0 ) ( = ( + ( * 1 lam0n3 ) ( * Nl2b_16^01 lam0n5 ) ( * Nl2b_16^02 lam0n6 ) ) 0 ) ( = ( + ( * 1 lam0n4 ) ( * Nl2x_14^01 lam0n5 ) ( * Nl2x_14^02 lam0n6 ) ) 0 ) ( = ( * ( - 1 ) lam0n0 ) 0 ) ( = ( * ( - 1 ) lam0n1 ) 0 ) ( = ( * ( - 1 ) lam0n2 ) 0 ) ( = ( * 1 lam0n4 ) 0 ) ) ( and ( >= lam1n5 0 ) ( >= lam1n6 0 ) ( > ( + ( * ( - 1 ) lam1n3 ) ( * ( - 2 ) lam1n4 ) ( * Nl2CT1 lam1n5 ) ( * Nl2CT2 lam1n6 ) ( - 1 ( + ( + ( + ( + ( + Nl2CT1 ( * Nl2__disjvr_1^01 0 ) ) ( * Nl2__disjvr_2^01 0 ) ) ( * Nl2__disjvr_3^01 0 ) ) ( * Nl2b_16^01 1 ) ) ( * Nl2x_14^01 0 ) ) ) ) 0 ) ( = ( + ( * 1 lam1n0 ) ( * Nl2__disjvr_1^01 lam1n5 ) ( * Nl2__disjvr_1^02 lam1n6 ) ) 0 ) ( = ( + ( * 1 lam1n1 ) ( * Nl2__disjvr_2^01 lam1n5 ) ( * Nl2__disjvr_2^02 lam1n6 ) ) 0 ) ( = ( + ( * 1 lam1n2 ) ( * Nl2__disjvr_3^01 lam1n5 ) ( * Nl2__disjvr_3^02 lam1n6 ) ) 0 ) ( = ( + ( * 1 lam1n3 ) ( * Nl2b_16^01 lam1n5 ) ( * Nl2b_16^02 lam1n6 ) ) 0 ) ( = ( + ( * 1 lam1n4 ) ( * Nl2x_14^01 lam1n5 ) ( * Nl2x_14^02 lam1n6 ) ) 0 ) ( = ( + ( * ( - 1 ) lam1n0 ) ( - ( + 0 ( * Nl2__disjvr_1^01 1 ) ) ) ) 0 ) ( = ( + ( * ( - 1 ) lam1n1 ) ( - ( + 0 ( * Nl2__disjvr_2^01 1 ) ) ) ) 0 ) ( = ( + ( * ( - 1 ) lam1n2 ) ( - ( + 0 ( * Nl2__disjvr_3^01 1 ) ) ) ) 0 ) ( = ( + ( * 1 lam1n4 ) ( - ( + 0 ( * Nl2x_14^01 ( - 1 ) ) ) ) ) 0 ) ) ))
(assert ( or ( and ( >= lam0n5 0 ) ( >= lam0n6 0 ) ( > ( + ( * ( - 1 ) lam0n3 ) ( * ( - 2 ) lam0n4 ) ( * Nl2CT1 lam0n5 ) ( * Nl2CT2 lam0n6 ) ( - 1 ) ) 0 ) ( = ( + ( * 1 lam0n0 ) ( * Nl2__disjvr_1^01 lam0n5 ) ( * Nl2__disjvr_1^02 lam0n6 ) ) 0 ) ( = ( + ( * 1 lam0n1 ) ( * Nl2__disjvr_2^01 lam0n5 ) ( * Nl2__disjvr_2^02 lam0n6 ) ) 0 ) ( = ( + ( * 1 lam0n2 ) ( * Nl2__disjvr_3^01 lam0n5 ) ( * Nl2__disjvr_3^02 lam0n6 ) ) 0 ) ( = ( + ( * 1 lam0n3 ) ( * Nl2b_16^01 lam0n5 ) ( * Nl2b_16^02 lam0n6 ) ) 0 ) ( = ( + ( * 1 lam0n4 ) ( * Nl2x_14^01 lam0n5 ) ( * Nl2x_14^02 lam0n6 ) ) 0 ) ( = ( * ( - 1 ) lam0n0 ) 0 ) ( = ( * ( - 1 ) lam0n1 ) 0 ) ( = ( * ( - 1 ) lam0n2 ) 0 ) ( = ( * 1 lam0n4 ) 0 ) ) ( and ( >= lam2n5 0 ) ( >= lam2n6 0 ) ( > ( + ( * ( - 1 ) lam2n3 ) ( * ( - 2 ) lam2n4 ) ( * Nl2CT1 lam2n5 ) ( * Nl2CT2 lam2n6 ) ( - 1 ( + ( + ( + ( + ( + Nl2CT2 ( * Nl2__disjvr_1^02 0 ) ) ( * Nl2__disjvr_2^02 0 ) ) ( * Nl2__disjvr_3^02 0 ) ) ( * Nl2b_16^02 1 ) ) ( * Nl2x_14^02 0 ) ) ) ) 0 ) ( = ( + ( * 1 lam2n0 ) ( * Nl2__disjvr_1^01 lam2n5 ) ( * Nl2__disjvr_1^02 lam2n6 ) ) 0 ) ( = ( + ( * 1 lam2n1 ) ( * Nl2__disjvr_2^01 lam2n5 ) ( * Nl2__disjvr_2^02 lam2n6 ) ) 0 ) ( = ( + ( * 1 lam2n2 ) ( * Nl2__disjvr_3^01 lam2n5 ) ( * Nl2__disjvr_3^02 lam2n6 ) ) 0 ) ( = ( + ( * 1 lam2n3 ) ( * Nl2b_16^01 lam2n5 ) ( * Nl2b_16^02 lam2n6 ) ) 0 ) ( = ( + ( * 1 lam2n4 ) ( * Nl2x_14^01 lam2n5 ) ( * Nl2x_14^02 lam2n6 ) ) 0 ) ( = ( + ( * ( - 1 ) lam2n0 ) ( - ( + 0 ( * Nl2__disjvr_1^02 1 ) ) ) ) 0 ) ( = ( + ( * ( - 1 ) lam2n1 ) ( - ( + 0 ( * Nl2__disjvr_2^02 1 ) ) ) ) 0 ) ( = ( + ( * ( - 1 ) lam2n2 ) ( - ( + 0 ( * Nl2__disjvr_3^02 1 ) ) ) ) 0 ) ( = ( + ( * 1 lam2n4 ) ( - ( + 0 ( * Nl2x_14^02 ( - 1 ) ) ) ) ) 0 ) ) ))
(assert ( and ( <= ( + 1 ( * ( - 1 ) x_14^0 ) ) 0 ) ( = ( + ( - 1 ) b_16^0 ) 0 ) ( <= ( + Nl2CT1 ( * ( + 0 Nl2__disjvr_1^01 ) __disjvr_1^0 ) ( * ( + 0 Nl2__disjvr_2^01 ) __disjvr_2^0 ) ( * ( + 0 Nl2__disjvr_3^01 ) __disjvr_3^0 ) ( * ( + 0 Nl2b_16^01 ) b_16^0 ) ( * ( + 0 Nl2x_14^01 ) x_14^0 ) ) 0 ) ( <= ( + Nl2CT2 ( * ( + 0 Nl2__disjvr_1^02 ) __disjvr_1^0 ) ( * ( + 0 Nl2__disjvr_2^02 ) __disjvr_2^0 ) ( * ( + 0 Nl2__disjvr_3^02 ) __disjvr_3^0 ) ( * ( + 0 Nl2b_16^02 ) b_16^0 ) ( * ( + 0 Nl2x_14^02 ) x_14^0 ) ) 0 ) ( <= ( + ( - 1 ) b_16^0 ) 0 ) ( <= ( + ( - 1 ) b_16^0 ) 0 ) ( <= ( * ( - 1 ) b_16^0 ) 0 ) ( <= ( + ( - 1 ) ( * ( - 1 ) b_16^0 ) ) 0 ) ( <= ( + 1 ( * ( - 1 ) b_16^0 ) ) 0 ) ( <= ( * ( - 1 ) b_16^0 ) 0 ) ( <= ( + ( - 1 ) ( * ( - 1 ) b_16^0 ) ) 0 ) ))
(assert ( or ( and ( and ( >= lam8n0 0 ) ( >= lam8n1 0 ) ( >= lam8n2 0 ) ( >= lam8n3 0 ) ( >= lam8n4 0 ) ( >= lam8n5 0 ) ( >= lam8n6 0 ) ( >= lam8n7 0 ) ( >= lam8n8 0 ) ( >= lam8n9 0 ) ( >= lam8n10 0 ) ( >= lam8n16 0 ) ( >= lam8n17 0 ) ( > ( + ( * 50001 lam8n0 ) ( * 50001 lam8n1 ) ( * 50001 lam8n2 ) ( * 50001 lam8n3 ) ( * 50001 lam8n4 ) ( * 50001 lam8n5 ) ( * 50001 lam8n6 ) ( * 50001 lam8n7 ) ( * 50001 lam8n8 ) ( * 50001 lam8n9 ) ( * 50001 lam8n10 ) ( * ( - 1 ) lam8n14 ) ( * ( - 2 ) lam8n15 ) ( * Nl2CT1 lam8n16 ) ( * Nl2CT2 lam8n17 ) ( - 1 ( - ( + ( + ( + ( + ( + RFN1_CT ( * RFN1___disjvr_1^0 0 ) ) ( * RFN1___disjvr_2^0 0 ) ) ( * RFN1___disjvr_3^0 0 ) ) ( * RFN1_b_16^0 1 ) ) ( * RFN1_x_14^0 0 ) ) RFN1_CT ) ) ) 0 ) ( = ( + ( * 1 lam8n0 ) ( * 1 lam8n1 ) ( * 1 lam8n2 ) ( * 1 lam8n3 ) ( * 1 lam8n4 ) ( * 1 lam8n5 ) ( * ( - 1 ) lam8n6 ) ( * ( - 1 ) lam8n7 ) ( * 1 lam8n11 ) ( * Nl2__disjvr_1^01 lam8n16 ) ( * Nl2__disjvr_1^02 lam8n17 ) ( - ( - RFN1___disjvr_1^0 ) ) ) 0 ) ( = ( + ( * 1 lam8n0 ) ( * ( - 1 ) lam8n1 ) ( * 2 lam8n2 ) ( * ( - 2 ) lam8n3 ) ( * 1 lam8n6 ) ( * ( - 1 ) lam8n7 ) ( * 1 lam8n12 ) ( * Nl2__disjvr_2^01 lam8n16 ) ( * Nl2__disjvr_2^02 lam8n17 ) ( - ( - RFN1___disjvr_2^0 ) ) ) 0 ) ( = ( + ( * 1 lam8n0 ) ( * ( - 1 ) lam8n1 ) ( * 2 lam8n2 ) ( * ( - 2 ) lam8n3 ) ( * 1 lam8n6 ) ( * ( - 1 ) lam8n7 ) ( * 1 lam8n13 ) ( * Nl2__disjvr_3^01 lam8n16 ) ( * Nl2__disjvr_3^02 lam8n17 ) ( - ( - RFN1___disjvr_3^0 ) ) ) 0 ) ( = ( + ( * 1 lam8n0 ) ( * 1 lam8n1 ) ( * ( - 1 ) lam8n2 ) ( * ( - 1 ) lam8n3 ) ( * ( - 1 ) lam8n4 ) ( * 49999 lam8n5 ) ( * 1 lam8n6 ) ( * 1 lam8n7 ) ( * ( - 1 ) lam8n8 ) ( * 50000 lam8n9 ) ( * 1 lam8n14 ) ( * Nl2b_16^01 lam8n16 ) ( * Nl2b_16^02 lam8n17 ) ( - ( - RFN1_b_16^0 ) ) ) 0 ) ( = ( + ( * 1 lam8n0 ) ( * 1 lam8n1 ) ( * 1 lam8n2 ) ( * 1 lam8n3 ) ( * 1 lam8n4 ) ( * 1 lam8n5 ) ( * 1 lam8n6 ) ( * 1 lam8n7 ) ( * 1 lam8n8 ) ( * 1 lam8n9 ) ( * 1 lam8n10 ) ( * 1 lam8n15 ) ( * Nl2x_14^01 lam8n16 ) ( * Nl2x_14^02 lam8n17 ) ( - ( - RFN1_x_14^0 ) ) ) 0 ) ( = ( + ( * ( - 1 ) lam8n11 ) ( - ( + 0 ( * RFN1___disjvr_1^0 1 ) ) ) ) 0 ) ( = ( + ( * ( - 1 ) lam8n12 ) ( - ( + 0 ( * RFN1___disjvr_2^0 1 ) ) ) ) 0 ) ( = ( + ( * ( - 1 ) lam8n13 ) ( - ( + 0 ( * RFN1___disjvr_3^0 1 ) ) ) ) 0 ) ( = ( + ( * 1 lam8n15 ) ( - ( + 0 ( * RFN1_x_14^0 ( - 1 ) ) ) ) ) 0 ) ) ( and ( and ( >= lam6n0 0 ) ( >= lam6n1 0 ) ( >= lam6n2 0 ) ( >= lam6n3 0 ) ( >= lam6n4 0 ) ( >= lam6n5 0 ) ( >= lam6n6 0 ) ( >= lam6n7 0 ) ( >= lam6n8 0 ) ( >= lam6n9 0 ) ( >= lam6n10 0 ) ( >= lam6n16 0 ) ( >= lam6n17 0 ) ( > ( + ( * 50001 lam6n0 ) ( * 50001 lam6n1 ) ( * 50001 lam6n2 ) ( * 50001 lam6n3 ) ( * 50001 lam6n4 ) ( * 50001 lam6n5 ) ( * 50001 lam6n6 ) ( * 50001 lam6n7 ) ( * 50001 lam6n8 ) ( * 50001 lam6n9 ) ( * 50001 lam6n10 ) ( * ( - 1 ) lam6n14 ) ( * ( - 2 ) lam6n15 ) ( * Nl2CT1 lam6n16 ) ( * Nl2CT2 lam6n17 ) ( - 1 ( - RFN1_CT ) ) ) 0 ) ( = ( + ( * 1 lam6n0 ) ( * 1 lam6n1 ) ( * 1 lam6n2 ) ( * 1 lam6n3 ) ( * 1 lam6n4 ) ( * 1 lam6n5 ) ( * ( - 1 ) lam6n6 ) ( * ( - 1 ) lam6n7 ) ( * 1 lam6n11 ) ( * Nl2__disjvr_1^01 lam6n16 ) ( * Nl2__disjvr_1^02 lam6n17 ) ( - ( - RFN1___disjvr_1^0 ) ) ) 0 ) ( = ( + ( * 1 lam6n0 ) ( * ( - 1 ) lam6n1 ) ( * 2 lam6n2 ) ( * ( - 2 ) lam6n3 ) ( * 1 lam6n6 ) ( * ( - 1 ) lam6n7 ) ( * 1 lam6n12 ) ( * Nl2__disjvr_2^01 lam6n16 ) ( * Nl2__disjvr_2^02 lam6n17 ) ( - ( - RFN1___disjvr_2^0 ) ) ) 0 ) ( = ( + ( * 1 lam6n0 ) ( * ( - 1 ) lam6n1 ) ( * 2 lam6n2 ) ( * ( - 2 ) lam6n3 ) ( * 1 lam6n6 ) ( * ( - 1 ) lam6n7 ) ( * 1 lam6n13 ) ( * Nl2__disjvr_3^01 lam6n16 ) ( * Nl2__disjvr_3^02 lam6n17 ) ( - ( - RFN1___disjvr_3^0 ) ) ) 0 ) ( = ( + ( * 1 lam6n0 ) ( * 1 lam6n1 ) ( * ( - 1 ) lam6n2 ) ( * ( - 1 ) lam6n3 ) ( * ( - 1 ) lam6n4 ) ( * 49999 lam6n5 ) ( * 1 lam6n6 ) ( * 1 lam6n7 ) ( * ( - 1 ) lam6n8 ) ( * 50000 lam6n9 ) ( * 1 lam6n14 ) ( * Nl2b_16^01 lam6n16 ) ( * Nl2b_16^02 lam6n17 ) ( - ( - RFN1_b_16^0 ) ) ) 0 ) ( = ( + ( * 1 lam6n0 ) ( * 1 lam6n1 ) ( * 1 lam6n2 ) ( * 1 lam6n3 ) ( * 1 lam6n4 ) ( * 1 lam6n5 ) ( * 1 lam6n6 ) ( * 1 lam6n7 ) ( * 1 lam6n8 ) ( * 1 lam6n9 ) ( * 1 lam6n10 ) ( * 1 lam6n15 ) ( * Nl2x_14^01 lam6n16 ) ( * Nl2x_14^02 lam6n17 ) ( - ( - RFN1_x_14^0 ) ) ) 0 ) ( = ( * ( - 1 ) lam6n11 ) 0 ) ( = ( * ( - 1 ) lam6n12 ) 0 ) ( = ( * ( - 1 ) lam6n13 ) 0 ) ( = ( * 1 lam6n15 ) 0 ) ) ( and ( >= lam7n0 0 ) ( >= lam7n1 0 ) ( >= lam7n2 0 ) ( >= lam7n3 0 ) ( >= lam7n4 0 ) ( >= lam7n5 0 ) ( >= lam7n6 0 ) ( >= lam7n7 0 ) ( >= lam7n8 0 ) ( >= lam7n9 0 ) ( >= lam7n10 0 ) ( >= lam7n16 0 ) ( >= lam7n17 0 ) ( > ( + ( * 50001 lam7n0 ) ( * 50001 lam7n1 ) ( * 50001 lam7n2 ) ( * 50001 lam7n3 ) ( * 50001 lam7n4 ) ( * 50001 lam7n5 ) ( * 50001 lam7n6 ) ( * 50001 lam7n7 ) ( * 50001 lam7n8 ) ( * 50001 lam7n9 ) ( * 50001 lam7n10 ) ( * ( - 1 ) lam7n14 ) ( * ( - 2 ) lam7n15 ) ( * Nl2CT1 lam7n16 ) ( * Nl2CT2 lam7n17 ) ( - 1 ( + ( - ( + ( + ( + ( + ( + RFN1_CT ( * RFN1___disjvr_1^0 0 ) ) ( * RFN1___disjvr_2^0 0 ) ) ( * RFN1___disjvr_3^0 0 ) ) ( * RFN1_b_16^0 1 ) ) ( * RFN1_x_14^0 0 ) ) RFN1_CT ) 1 ) ) ) 0 ) ( = ( + ( * 1 lam7n0 ) ( * 1 lam7n1 ) ( * 1 lam7n2 ) ( * 1 lam7n3 ) ( * 1 lam7n4 ) ( * 1 lam7n5 ) ( * ( - 1 ) lam7n6 ) ( * ( - 1 ) lam7n7 ) ( * 1 lam7n11 ) ( * Nl2__disjvr_1^01 lam7n16 ) ( * Nl2__disjvr_1^02 lam7n17 ) ( - ( - RFN1___disjvr_1^0 ) ) ) 0 ) ( = ( + ( * 1 lam7n0 ) ( * ( - 1 ) lam7n1 ) ( * 2 lam7n2 ) ( * ( - 2 ) lam7n3 ) ( * 1 lam7n6 ) ( * ( - 1 ) lam7n7 ) ( * 1 lam7n12 ) ( * Nl2__disjvr_2^01 lam7n16 ) ( * Nl2__disjvr_2^02 lam7n17 ) ( - ( - RFN1___disjvr_2^0 ) ) ) 0 ) ( = ( + ( * 1 lam7n0 ) ( * ( - 1 ) lam7n1 ) ( * 2 lam7n2 ) ( * ( - 2 ) lam7n3 ) ( * 1 lam7n6 ) ( * ( - 1 ) lam7n7 ) ( * 1 lam7n13 ) ( * Nl2__disjvr_3^01 lam7n16 ) ( * Nl2__disjvr_3^02 lam7n17 ) ( - ( - RFN1___disjvr_3^0 ) ) ) 0 ) ( = ( + ( * 1 lam7n0 ) ( * 1 lam7n1 ) ( * ( - 1 ) lam7n2 ) ( * ( - 1 ) lam7n3 ) ( * ( - 1 ) lam7n4 ) ( * 49999 lam7n5 ) ( * 1 lam7n6 ) ( * 1 lam7n7 ) ( * ( - 1 ) lam7n8 ) ( * 50000 lam7n9 ) ( * 1 lam7n14 ) ( * Nl2b_16^01 lam7n16 ) ( * Nl2b_16^02 lam7n17 ) ( - ( - RFN1_b_16^0 ) ) ) 0 ) ( = ( + ( * 1 lam7n0 ) ( * 1 lam7n1 ) ( * 1 lam7n2 ) ( * 1 lam7n3 ) ( * 1 lam7n4 ) ( * 1 lam7n5 ) ( * 1 lam7n6 ) ( * 1 lam7n7 ) ( * 1 lam7n8 ) ( * 1 lam7n9 ) ( * 1 lam7n10 ) ( * 1 lam7n15 ) ( * Nl2x_14^01 lam7n16 ) ( * Nl2x_14^02 lam7n17 ) ( - ( - RFN1_x_14^0 ) ) ) 0 ) ( = ( + ( * ( - 1 ) lam7n11 ) ( - ( + 0 ( * RFN1___disjvr_1^0 1 ) ) ) ) 0 ) ( = ( + ( * ( - 1 ) lam7n12 ) ( - ( + 0 ( * RFN1___disjvr_2^0 1 ) ) ) ) 0 ) ( = ( + ( * ( - 1 ) lam7n13 ) ( - ( + 0 ( * RFN1___disjvr_3^0 1 ) ) ) ) 0 ) ( = ( + ( * 1 lam7n15 ) ( - ( + 0 ( * RFN1_x_14^0 ( - 1 ) ) ) ) ) 0 ) ) ) ) ( and ( >= lam5n0 0 ) ( >= lam5n1 0 ) ( >= lam5n2 0 ) ( >= lam5n3 0 ) ( >= lam5n4 0 ) ( >= lam5n5 0 ) ( >= lam5n6 0 ) ( >= lam5n7 0 ) ( >= lam5n8 0 ) ( >= lam5n9 0 ) ( >= lam5n10 0 ) ( >= lam5n16 0 ) ( >= lam5n17 0 ) ( > ( + ( * 50001 lam5n0 ) ( * 50001 lam5n1 ) ( * 50001 lam5n2 ) ( * 50001 lam5n3 ) ( * 50001 lam5n4 ) ( * 50001 lam5n5 ) ( * 50001 lam5n6 ) ( * 50001 lam5n7 ) ( * 50001 lam5n8 ) ( * 50001 lam5n9 ) ( * 50001 lam5n10 ) ( * ( - 1 ) lam5n14 ) ( * ( - 2 ) lam5n15 ) ( * Nl2CT1 lam5n16 ) ( * Nl2CT2 lam5n17 ) ( - 1 ) ) 0 ) ( = ( + ( * 1 lam5n0 ) ( * 1 lam5n1 ) ( * 1 lam5n2 ) ( * 1 lam5n3 ) ( * 1 lam5n4 ) ( * 1 lam5n5 ) ( * ( - 1 ) lam5n6 ) ( * ( - 1 ) lam5n7 ) ( * 1 lam5n11 ) ( * Nl2__disjvr_1^01 lam5n16 ) ( * Nl2__disjvr_1^02 lam5n17 ) ) 0 ) ( = ( + ( * 1 lam5n0 ) ( * ( - 1 ) lam5n1 ) ( * 2 lam5n2 ) ( * ( - 2 ) lam5n3 ) ( * 1 lam5n6 ) ( * ( - 1 ) lam5n7 ) ( * 1 lam5n12 ) ( * Nl2__disjvr_2^01 lam5n16 ) ( * Nl2__disjvr_2^02 lam5n17 ) ) 0 ) ( = ( + ( * 1 lam5n0 ) ( * ( - 1 ) lam5n1 ) ( * 2 lam5n2 ) ( * ( - 2 ) lam5n3 ) ( * 1 lam5n6 ) ( * ( - 1 ) lam5n7 ) ( * 1 lam5n13 ) ( * Nl2__disjvr_3^01 lam5n16 ) ( * Nl2__disjvr_3^02 lam5n17 ) ) 0 ) ( = ( + ( * 1 lam5n0 ) ( * 1 lam5n1 ) ( * ( - 1 ) lam5n2 ) ( * ( - 1 ) lam5n3 ) ( * ( - 1 ) lam5n4 ) ( * 49999 lam5n5 ) ( * 1 lam5n6 ) ( * 1 lam5n7 ) ( * ( - 1 ) lam5n8 ) ( * 50000 lam5n9 ) ( * 1 lam5n14 ) ( * Nl2b_16^01 lam5n16 ) ( * Nl2b_16^02 lam5n17 ) ) 0 ) ( = ( + ( * 1 lam5n0 ) ( * 1 lam5n1 ) ( * 1 lam5n2 ) ( * 1 lam5n3 ) ( * 1 lam5n4 ) ( * 1 lam5n5 ) ( * 1 lam5n6 ) ( * 1 lam5n7 ) ( * 1 lam5n8 ) ( * 1 lam5n9 ) ( * 1 lam5n10 ) ( * 1 lam5n15 ) ( * Nl2x_14^01 lam5n16 ) ( * Nl2x_14^02 lam5n17 ) ) 0 ) ( = ( * ( - 1 ) lam5n11 ) 0 ) ( = ( * ( - 1 ) lam5n12 ) 0 ) ( = ( * ( - 1 ) lam5n13 ) 0 ) ( = ( * 1 lam5n15 ) 0 ) ) ))
(check-sat)
(exit)
